\ENCODING=ISO-8859-1
\Problem name: instances

Maximize
 obj:
Subject To
 c1: 622 x1 + 454 x2 + 277 x3 + 602 x4 + 86 x5 + 975 x6 + 423 x7 + 631 x8
     + 260 x9 + 334 x10 + 321 x11 + 60 x12 + 548 x13 + 941 x14 + 80 x15
     + 141 x16 + 351 x17 + 499 x18 + 814 x19 + 202 x20 + 652 x21 + 36 x22
     + 681 x23 + 323 x24 + 826 x25 + 393 x26 + 336 x27 + 665 x28 + 11 x29
     + 779 x30 + 573 x31 + 632 x32 + 233 x33 + 850 x34 + 234 x35 + 318 x36
     + 824 x37 + 657 x38 + 948 x39 + 83 x40 + 991 x41 + 268 x42 + 142 x43
     + 538 x44 + 209 x45 + 222 x46 + 678 x47 + 559 x48 + 720 x49 + 492 x50
     + 761 x51 + 372 x52 + 527 x53 + 441 x54 + 694 x55 + 353 x56 + 834 x57
     + 29 x58 + 18 x59 + 845 x60 + 808 x61 + 590 x62 + 476 x63 + 40 x64
     + 439 x65 + 710 x66 + 358 x67 + 262 x68 + 367 x69 + 305 x70 + 345 x71
     + 357 x72 + 573 x73 + 487 x74 + 894 x75 + 782 x76 + 708 x77 + 572 x78
     + 340 x79 + 427 x80 + 63 x81 + 101 x82 + 798 x83 + 590 x84 + 541 x85
     + 491 x86 + 942 x87 + 375 x88 + 520 x89 + 960 x90 <= 21794
Bounds
 0 <= x1 <= 1
 0 <= x2 <= 1
 0 <= x3 <= 1
 0 <= x4 <= 1
 0 <= x5 <= 1
 0 <= x6 <= 1
 0 <= x7 <= 1
 0 <= x8 <= 1
 0 <= x9 <= 1
 0 <= x10 <= 1
 0 <= x11 <= 1
 0 <= x12 <= 1
 0 <= x13 <= 1
 0 <= x14 <= 1
 0 <= x15 <= 1
 0 <= x16 <= 1
 0 <= x17 <= 1
 0 <= x18 <= 1
 0 <= x19 <= 1
 0 <= x20 <= 1
 0 <= x21 <= 1
 0 <= x22 <= 1
 0 <= x23 <= 1
 0 <= x24 <= 1
 0 <= x25 <= 1
 0 <= x26 <= 1
 0 <= x27 <= 1
 0 <= x28 <= 1
 0 <= x29 <= 1
 0 <= x30 <= 1
 0 <= x31 <= 1
 0 <= x32 <= 1
 0 <= x33 <= 1
 0 <= x34 <= 1
 0 <= x35 <= 1
 0 <= x36 <= 1
 0 <= x37 <= 1
 0 <= x38 <= 1
 0 <= x39 <= 1
 0 <= x40 <= 1
 0 <= x41 <= 1
 0 <= x42 <= 1
 0 <= x43 <= 1
 0 <= x44 <= 1
 0 <= x45 <= 1
 0 <= x46 <= 1
 0 <= x47 <= 1
 0 <= x48 <= 1
 0 <= x49 <= 1
 0 <= x50 <= 1
 0 <= x51 <= 1
 0 <= x52 <= 1
 0 <= x53 <= 1
 0 <= x54 <= 1
 0 <= x55 <= 1
 0 <= x56 <= 1
 0 <= x57 <= 1
 0 <= x58 <= 1
 0 <= x59 <= 1
 0 <= x60 <= 1
 0 <= x61 <= 1
 0 <= x62 <= 1
 0 <= x63 <= 1
 0 <= x64 <= 1
 0 <= x65 <= 1
 0 <= x66 <= 1
 0 <= x67 <= 1
 0 <= x68 <= 1
 0 <= x69 <= 1
 0 <= x70 <= 1
 0 <= x71 <= 1
 0 <= x72 <= 1
 0 <= x73 <= 1
 0 <= x74 <= 1
 0 <= x75 <= 1
 0 <= x76 <= 1
 0 <= x77 <= 1
 0 <= x78 <= 1
 0 <= x79 <= 1
 0 <= x80 <= 1
 0 <= x81 <= 1
 0 <= x82 <= 1
 0 <= x83 <= 1
 0 <= x84 <= 1
 0 <= x85 <= 1
 0 <= x86 <= 1
 0 <= x87 <= 1
 0 <= x88 <= 1
 0 <= x89 <= 1
 0 <= x90 <= 1
Binaries
 x1  x2  x3  x4  x5  x6  x7  x8  x9  x10  x11  x12  x13  x14  x15  x16  x17 
 x18  x19  x20  x21  x22  x23  x24  x25  x26  x27  x28  x29  x30  x31  x32 
 x33  x34  x35  x36  x37  x38  x39  x40  x41  x42  x43  x44  x45  x46  x47 
 x48  x49  x50  x51  x52  x53  x54  x55  x56  x57  x58  x59  x60  x61  x62 
 x63  x64  x65  x66  x67  x68  x69  x70  x71  x72  x73  x74  x75  x76  x77 
 x78  x79  x80  x81  x82  x83  x84  x85  x86  x87  x88  x89  x90 
End
